 181750
 836769
 543694
 559635
 336318
 894619
 881430
 218323
 858550
 205094
 743078
 303301
 194193
 830120
  64992
 484539
 524468
 641063
 134307
 237391
 352095
 617608
 171621
 160312
 535157
 119468
 688375
 371461
 878785
 396332
 839521
 545079
 121375
 538208
 220448
  31812
 283838
 404557
 769338
 348104
